c ren 1 -> 1
c ren 2 -> 2
c ren 3 -> 3
c ren 5 -> 4
c ren 7 -> 5
c ren 8 -> 6
c ren 9 -> 7
c ren 11 -> 8
c ren 14 -> 9
c ren 15 -> 10
c ren 16 -> 11
c ren 18 -> 12
c ren 21 -> 13
c ren 25 -> 14
c ren 28 -> 15
c ren 29 -> 16
c ren 32 -> 17
c ren 33 -> 18
c ren 36 -> 19
c ren 37 -> 20
c ren 40 -> 21
c ren 41 -> 22
c ren 42 -> 23
c ren 45 -> 24
c ren 46 -> 25
c ren 49 -> 26
c ren 50 -> 27
c ren 51 -> 28
c ren 53 -> 29
c ren 56 -> 30
c ren 66 -> 31
p cnf 31 59
a 1 2 3 5 6 7 9 10 11 13 15 17 19 21 24 26 30 0
d 22 2 3 0
d 27 21 24 0
d 28 2 3 0
d 31 19 30 0
e 4 8 12 14 16 18 20 23 25 29 0
1 -2 -3 4 0
-1 -2 3 4 0
1 2 3 4 0
-1 2 -3 4 0
6 -7 -15 16 0
-5 -6 7 8 0
5 -6 -7 8 0
-6 7 -15 16 0
6 7 15 16 0
10 -11 -17 18 0
-9 -10 11 12 0
9 -10 -11 12 0
-10 11 -17 18 0
-4 -8 10 -12 13 -14 -16 -17 -18 -20 -23 -25 -26 -29 -30 0
10 11 17 18 0
-1 -5 -13 14 0
3 5 13 14 0
-2 -3 -13 14 0
1 2 13 14 0
2 5 13 14 0
1 3 13 14 0
-6 -7 15 16 0
-5 6 -7 8 0
-4 -8 11 -12 13 -14 -16 -17 -18 -20 -23 -25 -26 -29 -30 0
-10 -11 17 18 0
-9 10 -11 12 0
-17 -19 20 0
17 19 20 0
-21 -22 23 0
21 22 23 0
-4 -8 9 -12 13 -14 -16 -18 -20 -23 -25 -26 -29 -30 -31 0
-15 -24 25 0
15 24 25 0
-4 -8 -9 -12 13 -14 -16 -18 -20 -23 -25 -26 -29 -30 31 0
26 27 28 29 0
-26 -28 29 0
-26 -27 29 0
-4 -8 -9 -12 -13 -14 -16 -18 -20 -23 -25 -26 -29 -30 -31 0
-4 -8 9 -12 -13 -14 -16 -18 -20 -23 -25 -26 -29 -30 31 0
5 6 7 8 0
9 10 11 12 0
-1 -4 -5 -8 -12 -14 -15 -16 -18 -20 -23 -25 26 -29 30 0
-1 -4 5 -8 -12 -14 15 -16 -18 -20 22 -23 -25 26 -29 30 0
1 -4 5 -8 -12 -14 -16 -18 -20 -22 -23 -25 26 -29 30 0
-1 -4 -5 -8 -12 -14 -16 -18 -20 -22 -23 -25 26 -29 30 0
1 -4 -5 -8 -12 -14 15 -16 -18 -20 22 -23 -25 26 -29 30 0
1 -4 5 -8 -12 -14 -15 -16 -18 -20 -23 -25 26 -29 30 0
-4 -8 9 -12 13 -14 -16 -18 -20 -23 -25 26 -29 30 -31 0
-4 -8 -9 -12 -13 -14 -16 -18 -20 -23 -25 26 -29 30 -31 0
-4 -8 -9 -12 13 -14 -16 -18 -20 -23 -25 26 -29 30 31 0
-4 -8 9 -12 -13 -14 -16 -18 -20 -23 -25 26 -29 30 31 0
-4 -8 -9 11 -12 -13 -14 -16 -18 -20 -23 -25 26 -29 30 0
1 -4 -5 -8 -12 -14 15 -16 -18 -20 22 -23 -25 -26 -29 -30 0
-1 -4 -5 -8 -12 -14 -15 -16 -18 -20 -23 -25 -26 -29 -30 0
-4 -8 -9 10 -12 -13 -14 -16 -18 -20 -23 -25 26 -29 30 0
1 -4 5 -8 -12 -14 -16 -18 -20 -22 -23 -25 -26 -29 -30 0
-1 -4 -5 -8 -12 -14 -16 -18 -20 -22 -23 -25 -26 -29 -30 0
1 -4 5 -8 -12 -14 -15 -16 -18 -20 -23 -25 -26 -29 -30 0
-1 -4 5 -8 -12 -14 15 -16 -18 -20 22 -23 -25 -26 -29 -30 0
